************************************************************************
file with basedata            : mm26_.bas
initial value random generator: 829674294
************************************************************************
projects                      :  1
jobs (incl. supersource/sink ):  12
horizon                       :  83
RESOURCES
  - renewable                 :  2   R
  - nonrenewable              :  2   N
  - doubly constrained        :  0   D
************************************************************************
PROJECT INFORMATION:
pronr.  #jobs rel.date duedate tardcost  MPM-Time
    1     10      0       17        2       17
************************************************************************
PRECEDENCE RELATIONS:
jobnr.    #modes  #successors   successors
   0        1          3           1   2   3
   1        3          2           4  10
   2        3          2           7  10
   3        3          1           8
   4        3          2           5   6
   5        3          2           8   9
   6        3          2           7   9
   7        3          1           8
   8        3          1          11
   9        3          1          11
  10        3          1          11
  11        1          0        
************************************************************************
REQUESTS/DURATIONS:
jobnr. mode duration  R 1  R 2  R 3  R 4  E(W 1)  E(W 2)
------------------------------------------------------------------------
  0      1     0       0    0    0    0     0       0
  1      1     6       0    6    7    0    36      42
  2      1     4       3    0    9    0    12      36
  3      1     3       9    0    0   10    27      30
  4      1     2       0    4   10    0     8      20
  5      1     5       0    8    0    6    40      30
  6      1     4       0    4    0    7    16      28
  7      1     3       0    9    8    0    27      24
  8      1     2       7    0    0    9    14      18
  9      1     1       0    9    3    0     9       3
 10      1     6       7    0    0    2    42      12
 11      1     0       0    0    0    0     0       0
************************************************************************
RESOURCEAVAILABILITIES:
  R 1  R 2
   44   61
************************************************************************
RESOURCE LIMITS:
jobnr.  l(R 1)  u(R 1)  l(R 2)  u(R 2)
------------------------------------------------------------------------
  0        0       0       0       0
  1        3       6       4       7
  2        2       3       5       9
  3        5       9       5      10
  4        2       4       5      10
  5        4       8       3       6
  6        2       4       4       7
  7        5       9       4       8
  8        4       7       5       9
  9        5       9       2       3
 10        4       7       1       2
 11        0       0       0       0
************************************************************************
SCENARIOS:
------------------------------------------------------------------------
RESOURCE k = 1
s = 1: (0, 33, 11, 23, 8, 42, 17, 37, 11, 10, 33, 0)
s = 2: (0, 31, 7, 24, 5, 31, 25, 34, 18, 9, 51, 0)
s = 3: (0, 30, 11, 34, 9, 52, 17, 22, 17, 6, 56, 0)
s = 4: (0, 40, 17, 23, 7, 41, 9, 32, 12, 14, 40, 0)
s = 5: (0, 28, 13, 29, 8, 62, 12, 19, 14, 7, 29, 0)
s = 6: (0, 43, 8, 23, 7, 51, 16, 14, 15, 13, 37, 0)
s = 7: (0, 28, 8, 26, 9, 35, 15, 38, 17, 8, 29, 0)
s = 8: (0, 38, 16, 23, 8, 29, 9, 39, 11, 6, 51, 0)
s = 9: (0, 52, 15, 25, 10, 62, 10, 26, 12, 13, 49, 0)
s = 10: (0, 52, 14, 32, 6, 37, 18, 26, 19, 10, 26, 0)
s = 11: (0, 24, 12, 25, 7, 26, 10, 24, 10, 10, 50, 0)
s = 12: (0, 29, 20, 34, 6, 56, 22, 33, 21, 15, 64, 0)
s = 13: (0, 34, 13, 24, 9, 31, 12, 30, 22, 6, 35, 0)
s = 14: (0, 27, 9, 25, 9, 50, 16, 31, 9, 7, 42, 0)
s = 15: (0, 30, 8, 26, 8, 23, 10, 18, 14, 8, 42, 0)
s = 16: (0, 26, 10, 33, 8, 41, 14, 30, 16, 7, 48, 0)
s = 17: (0, 39, 14, 33, 9, 36, 17, 19, 17, 10, 58, 0)
s = 18: (0, 23, 14, 36, 7, 48, 21, 22, 17, 14, 46, 0)
s = 19: (0, 53, 11, 26, 7, 47, 17, 39, 17, 18, 29, 0)
s = 20: (0, 27, 15, 40, 7, 36, 11, 23, 17, 9, 27, 0)
s = 21: (0, 27, 15, 42, 8, 49, 20, 30, 19, 10, 40, 0)
s = 22: (0, 24, 15, 19, 6, 33, 14, 18, 11, 8, 33, 0)
s = 23: (0, 28, 18, 28, 10, 27, 22, 26, 14, 9, 46, 0)
s = 24: (0, 27, 9, 35, 8, 61, 12, 27, 16, 8, 52, 0)
s = 25: (0, 45, 15, 41, 9, 62, 13, 29, 17, 10, 26, 0)
s = 26: (0, 32, 23, 24, 14, 50, 16, 24, 16, 6, 37, 0)
s = 27: (0, 52, 13, 34, 5, 29, 18, 23, 27, 7, 27, 0)
s = 28: (0, 26, 10, 25, 7, 47, 12, 30, 11, 10, 28, 0)
s = 29: (0, 28, 13, 29, 8, 27, 13, 19, 16, 12, 62, 0)
s = 30: (0, 23, 16, 38, 7, 39, 11, 26, 18, 10, 60, 0)
s = 31: (0, 23, 12, 27, 7, 40, 21, 15, 11, 7, 55, 0)
s = 32: (0, 37, 15, 26, 12, 51, 15, 24, 13, 8, 35, 0)
s = 33: (0, 44, 14, 34, 9, 35, 10, 26, 14, 6, 43, 0)
s = 34: (0, 26, 9, 22, 6, 35, 17, 26, 13, 8, 35, 0)
s = 35: (0, 39, 8, 27, 7, 31, 20, 27, 13, 7, 32, 0)
s = 36: (0, 33, 14, 23, 12, 62, 28, 34, 10, 10, 65, 0)
s = 37: (0, 33, 12, 21, 8, 31, 28, 38, 13, 10, 40, 0)
s = 38: (0, 35, 12, 44, 7, 51, 19, 45, 22, 6, 54, 0)
s = 39: (0, 24, 10, 31, 8, 37, 16, 37, 12, 9, 37, 0)
s = 40: (0, 43, 9, 22, 8, 45, 15, 25, 11, 7, 64, 0)
s = 41: (0, 48, 12, 33, 5, 24, 25, 32, 14, 15, 46, 0)
s = 42: (0, 56, 14, 19, 8, 23, 15, 26, 12, 6, 25, 0)
s = 43: (0, 25, 16, 24, 9, 34, 23, 27, 14, 8, 41, 0)
s = 44: (0, 50, 10, 36, 9, 43, 16, 15, 14, 14, 33, 0)
s = 45: (0, 49, 17, 36, 7, 29, 16, 20, 23, 7, 29, 0)
s = 46: (0, 32, 8, 26, 8, 49, 18, 30, 11, 8, 45, 0)
s = 47: (0, 24, 7, 28, 9, 23, 11, 48, 18, 12, 38, 0)
s = 48: (0, 46, 13, 27, 13, 49, 13, 30, 11, 9, 30, 0)
s = 49: (0, 44, 12, 27, 8, 23, 16, 30, 21, 7, 36, 0)
s = 50: (0, 42, 13, 23, 7, 43, 12, 28, 16, 6, 38, 0)
s = 51: (0, 37, 19, 15, 7, 26, 19, 31, 13, 7, 32, 0)
s = 52: (0, 32, 14, 21, 11, 35, 13, 28, 13, 8, 56, 0)
s = 53: (0, 24, 14, 35, 9, 39, 19, 20, 17, 8, 51, 0)
s = 54: (0, 36, 9, 28, 9, 35, 18, 35, 12, 10, 46, 0)
s = 55: (0, 36, 14, 26, 5, 43, 23, 18, 14, 9, 27, 0)
s = 56: (0, 35, 10, 21, 6, 50, 18, 28, 19, 10, 39, 0)
s = 57: (0, 36, 18, 27, 10, 32, 14, 37, 20, 8, 38, 0)
s = 58: (0, 36, 10, 35, 8, 38, 17, 27, 9, 10, 39, 0)
s = 59: (0, 49, 16, 22, 7, 38, 21, 31, 19, 11, 32, 0)
s = 60: (0, 31, 14, 25, 9, 26, 22, 25, 16, 9, 39, 0)
s = 61: (0, 40, 11, 24, 15, 24, 10, 52, 12, 6, 49, 0)
s = 62: (0, 40, 7, 42, 7, 40, 22, 28, 11, 9, 38, 0)
s = 63: (0, 37, 15, 19, 10, 34, 19, 29, 11, 7, 43, 0)
s = 64: (0, 42, 8, 27, 8, 28, 14, 26, 11, 13, 27, 0)
s = 65: (0, 40, 10, 23, 9, 45, 27, 35, 15, 9, 24, 0)
s = 66: (0, 39, 12, 19, 6, 35, 18, 21, 11, 7, 45, 0)
s = 67: (0, 50, 10, 38, 8, 64, 17, 22, 10, 10, 27, 0)
s = 68: (0, 42, 10, 28, 9, 21, 10, 43, 23, 7, 60, 0)
s = 69: (0, 50, 16, 24, 7, 43, 21, 37, 11, 8, 51, 0)
s = 70: (0, 48, 10, 34, 7, 47, 19, 20, 15, 10, 38, 0)
s = 71: (0, 32, 16, 21, 7, 46, 15, 23, 19, 14, 36, 0)
s = 72: (0, 60, 14, 19, 11, 58, 19, 23, 18, 7, 42, 0)
s = 73: (0, 24, 17, 26, 8, 39, 16, 26, 20, 6, 38, 0)
s = 74: (0, 43, 11, 15, 6, 26, 14, 46, 18, 7, 23, 0)
s = 75: (0, 50, 12, 23, 6, 34, 11, 26, 16, 8, 31, 0)
s = 76: (0, 31, 14, 27, 11, 57, 17, 27, 12, 16, 30, 0)
s = 77: (0, 39, 12, 21, 13, 55, 20, 25, 14, 9, 43, 0)
s = 78: (0, 50, 20, 26, 13, 32, 20, 30, 11, 7, 69, 0)
s = 79: (0, 29, 15, 19, 9, 48, 18, 36, 9, 11, 44, 0)
s = 80: (0, 21, 10, 37, 9, 26, 11, 28, 13, 8, 50, 0)
s = 81: (0, 49, 9, 21, 9, 28, 13, 29, 12, 10, 33, 0)
s = 82: (0, 31, 14, 17, 8, 32, 21, 35, 14, 14, 55, 0)
s = 83: (0, 58, 9, 26, 11, 22, 21, 47, 10, 12, 44, 0)
s = 84: (0, 24, 13, 33, 13, 46, 12, 28, 12, 10, 46, 0)
s = 85: (0, 36, 11, 33, 9, 36, 12, 32, 9, 8, 39, 0)
s = 86: (0, 32, 13, 15, 6, 44, 11, 37, 14, 9, 75, 0)
s = 87: (0, 38, 14, 22, 9, 37, 10, 24, 13, 13, 49, 0)
s = 88: (0, 42, 12, 29, 12, 38, 14, 41, 12, 13, 46, 0)
s = 89: (0, 23, 8, 37, 8, 45, 19, 22, 11, 8, 34, 0)
s = 90: (0, 51, 14, 16, 11, 36, 21, 25, 14, 10, 52, 0)
s = 91: (0, 36, 7, 28, 12, 23, 18, 25, 12, 15, 72, 0)
s = 92: (0, 28, 9, 27, 7, 34, 11, 36, 13, 12, 39, 0)
s = 93: (0, 47, 8, 26, 8, 31, 13, 43, 12, 10, 34, 0)
s = 94: (0, 28, 7, 29, 8, 28, 15, 23, 13, 12, 29, 0)
s = 95: (0, 51, 9, 25, 8, 34, 18, 17, 11, 12, 27, 0)
s = 96: (0, 38, 14, 17, 5, 27, 17, 44, 13, 12, 42, 0)
s = 97: (0, 50, 17, 27, 8, 42, 17, 27, 15, 12, 35, 0)
s = 98: (0, 37, 10, 23, 8, 30, 15, 40, 10, 9, 30, 0)
s = 99: (0, 38, 11, 30, 10, 40, 12, 24, 19, 8, 39, 0)
s = 100: (0, 22, 9, 25, 8, 42, 13, 27, 12, 6, 34, 0)
s = 101: (0, 22, 11, 18, 7, 38, 15, 47, 8, 7, 31, 0)
s = 102: (0, 28, 13, 18, 8, 37, 17, 19, 13, 10, 42, 0)
s = 103: (0, 23, 14, 31, 7, 50, 19, 31, 12, 9, 33, 0)
s = 104: (0, 37, 9, 27, 8, 29, 13, 36, 10, 8, 35, 0)
s = 105: (0, 37, 10, 22, 8, 27, 11, 19, 12, 6, 47, 0)
s = 106: (0, 43, 13, 25, 5, 36, 21, 20, 14, 11, 55, 0)
s = 107: (0, 52, 10, 31, 8, 40, 19, 36, 16, 5, 27, 0)
s = 108: (0, 31, 16, 43, 6, 43, 13, 24, 15, 10, 47, 0)
s = 109: (0, 35, 11, 26, 7, 45, 12, 15, 19, 7, 35, 0)
s = 110: (0, 40, 12, 22, 8, 47, 24, 16, 13, 12, 32, 0)
s = 111: (0, 41, 15, 34, 10, 33, 12, 35, 13, 12, 38, 0)
s = 112: (0, 68, 16, 24, 6, 41, 23, 31, 20, 9, 63, 0)
s = 113: (0, 41, 7, 21, 7, 46, 22, 29, 17, 8, 58, 0)
s = 114: (0, 30, 21, 24, 10, 30, 13, 21, 13, 10, 62, 0)
s = 115: (0, 31, 11, 42, 11, 27, 10, 26, 16, 10, 37, 0)
s = 116: (0, 26, 8, 19, 9, 23, 19, 32, 14, 10, 32, 0)
s = 117: (0, 33, 24, 37, 7, 49, 21, 29, 13, 10, 33, 0)
s = 118: (0, 61, 13, 19, 8, 55, 10, 24, 10, 11, 56, 0)
s = 119: (0, 31, 18, 23, 14, 50, 20, 29, 14, 13, 28, 0)
s = 120: (0, 36, 18, 18, 9, 50, 24, 32, 18, 6, 23, 0)
s = 121: (0, 27, 10, 42, 9, 43, 21, 44, 18, 9, 45, 0)
s = 122: (0, 61, 12, 46, 6, 41, 20, 26, 12, 7, 68, 0)
s = 123: (0, 41, 14, 27, 8, 34, 21, 33, 20, 9, 24, 0)
s = 124: (0, 24, 13, 33, 7, 43, 14, 35, 9, 12, 41, 0)
s = 125: (0, 42, 14, 33, 10, 36, 12, 26, 19, 9, 35, 0)
s = 126: (0, 33, 16, 34, 10, 56, 18, 22, 12, 10, 46, 0)
s = 127: (0, 23, 15, 28, 12, 46, 9, 33, 15, 14, 62, 0)
s = 128: (0, 39, 11, 35, 8, 30, 20, 29, 24, 11, 36, 0)
s = 129: (0, 49, 17, 25, 10, 44, 29, 19, 13, 12, 54, 0)
s = 130: (0, 35, 11, 34, 10, 21, 16, 26, 17, 9, 42, 0)
s = 131: (0, 31, 9, 26, 9, 39, 21, 22, 12, 7, 26, 0)
s = 132: (0, 26, 11, 23, 13, 51, 13, 23, 17, 9, 50, 0)
s = 133: (0, 23, 14, 24, 10, 42, 10, 35, 9, 15, 32, 0)
s = 134: (0, 37, 8, 31, 13, 47, 17, 21, 14, 10, 44, 0)
s = 135: (0, 45, 10, 18, 5, 30, 18, 29, 10, 8, 40, 0)
s = 136: (0, 35, 12, 21, 10, 43, 22, 20, 19, 9, 41, 0)
s = 137: (0, 34, 7, 23, 7, 52, 9, 35, 16, 18, 44, 0)
s = 138: (0, 54, 12, 38, 11, 48, 17, 23, 23, 10, 53, 0)
s = 139: (0, 40, 12, 23, 9, 40, 17, 34, 16, 12, 39, 0)
s = 140: (0, 39, 15, 22, 6, 48, 15, 30, 12, 11, 45, 0)
s = 141: (0, 23, 10, 20, 11, 31, 16, 42, 16, 11, 44, 0)
s = 142: (0, 20, 8, 37, 11, 45, 16, 16, 16, 7, 44, 0)
s = 143: (0, 49, 15, 33, 11, 44, 19, 18, 11, 8, 50, 0)
s = 144: (0, 32, 14, 17, 6, 41, 16, 22, 11, 10, 60, 0)
s = 145: (0, 32, 7, 26, 11, 38, 13, 22, 12, 8, 30, 0)
s = 146: (0, 24, 13, 17, 8, 70, 18, 17, 11, 12, 46, 0)
s = 147: (0, 33, 12, 26, 6, 53, 13, 23, 11, 8, 25, 0)
s = 148: (0, 28, 10, 18, 11, 67, 23, 17, 17, 10, 47, 0)
s = 149: (0, 27, 17, 28, 5, 33, 11, 17, 9, 6, 37, 0)
s = 150: (0, 32, 13, 34, 10, 62, 15, 34, 16, 6, 32, 0)
s = 151: (0, 41, 11, 26, 6, 45, 25, 38, 16, 6, 41, 0)
s = 152: (0, 34, 17, 23, 6, 62, 12, 27, 18, 12, 36, 0)
s = 153: (0, 54, 12, 32, 9, 31, 22, 38, 20, 8, 32, 0)
s = 154: (0, 39, 11, 24, 5, 31, 16, 26, 20, 16, 30, 0)
s = 155: (0, 26, 15, 23, 6, 39, 21, 36, 9, 7, 37, 0)
s = 156: (0, 25, 15, 27, 9, 31, 14, 33, 15, 9, 36, 0)
s = 157: (0, 57, 15, 28, 8, 63, 25, 32, 13, 8, 35, 0)
s = 158: (0, 28, 11, 22, 10, 38, 11, 56, 13, 8, 55, 0)
s = 159: (0, 22, 14, 26, 7, 48, 15, 22, 9, 10, 27, 0)
s = 160: (0, 29, 10, 31, 7, 49, 18, 22, 16, 7, 57, 0)
s = 161: (0, 21, 11, 24, 10, 46, 19, 18, 17, 11, 44, 0)
s = 162: (0, 35, 12, 33, 6, 49, 15, 30, 8, 7, 26, 0)
s = 163: (0, 41, 14, 15, 15, 30, 22, 25, 13, 10, 40, 0)
s = 164: (0, 30, 10, 21, 7, 37, 14, 20, 9, 11, 31, 0)
s = 165: (0, 38, 7, 35, 7, 57, 15, 18, 11, 7, 46, 0)
s = 166: (0, 30, 17, 20, 6, 38, 13, 31, 10, 12, 51, 0)
s = 167: (0, 25, 8, 34, 7, 61, 9, 29, 8, 9, 37, 0)
s = 168: (0, 42, 17, 25, 8, 36, 12, 24, 14, 6, 44, 0)
s = 169: (0, 40, 13, 23, 9, 42, 16, 23, 12, 6, 49, 0)
s = 170: (0, 39, 9, 29, 5, 65, 20, 28, 9, 7, 45, 0)
s = 171: (0, 27, 11, 26, 9, 28, 17, 37, 15, 10, 34, 0)
s = 172: (0, 24, 15, 21, 9, 37, 10, 20, 16, 9, 29, 0)
s = 173: (0, 56, 16, 20, 6, 26, 12, 43, 17, 10, 55, 0)
s = 174: (0, 29, 9, 36, 8, 30, 14, 27, 15, 9, 37, 0)
s = 175: (0, 25, 10, 19, 10, 25, 17, 29, 8, 6, 41, 0)
s = 176: (0, 24, 13, 19, 14, 36, 12, 31, 15, 6, 36, 0)
s = 177: (0, 38, 8, 27, 12, 35, 21, 33, 20, 10, 49, 0)
s = 178: (0, 26, 10, 48, 8, 35, 15, 18, 12, 11, 44, 0)
s = 179: (0, 57, 15, 17, 6, 55, 28, 34, 11, 8, 38, 0)
s = 180: (0, 29, 8, 31, 9, 39, 17, 26, 10, 6, 27, 0)
s = 181: (0, 32, 22, 28, 8, 46, 14, 23, 12, 7, 46, 0)
s = 182: (0, 41, 10, 28, 9, 54, 24, 19, 9, 6, 27, 0)
s = 183: (0, 36, 15, 19, 7, 44, 16, 17, 15, 7, 33, 0)
s = 184: (0, 23, 14, 24, 9, 48, 15, 20, 9, 14, 32, 0)
s = 185: (0, 33, 10, 28, 11, 39, 15, 34, 26, 9, 42, 0)
s = 186: (0, 61, 12, 19, 6, 38, 26, 23, 19, 7, 33, 0)
s = 187: (0, 36, 13, 24, 6, 45, 17, 32, 20, 10, 41, 0)
s = 188: (0, 41, 16, 33, 13, 55, 21, 22, 12, 8, 38, 0)
s = 189: (0, 41, 8, 35, 8, 55, 19, 19, 16, 11, 24, 0)
s = 190: (0, 35, 10, 19, 5, 34, 18, 22, 20, 7, 43, 0)
s = 191: (0, 25, 17, 19, 13, 48, 26, 39, 26, 13, 46, 0)
s = 192: (0, 19, 9, 22, 14, 40, 13, 35, 11, 12, 36, 0)
s = 193: (0, 32, 7, 22, 9, 34, 14, 24, 11, 10, 48, 0)
s = 194: (0, 43, 13, 31, 9, 37, 23, 17, 11, 14, 27, 0)
s = 195: (0, 50, 11, 42, 5, 37, 14, 17, 9, 7, 41, 0)
s = 196: (0, 50, 11, 29, 10, 32, 12, 24, 15, 8, 53, 0)
s = 197: (0, 36, 17, 26, 7, 46, 19, 26, 16, 11, 49, 0)
s = 198: (0, 24, 7, 24, 10, 48, 11, 32, 12, 12, 33, 0)
s = 199: (0, 32, 10, 28, 13, 40, 16, 24, 19, 11, 29, 0)
s = 200: (0, 36, 12, 37, 9, 49, 16, 18, 16, 6, 65, 0)
------------------------------------------------------------------------
RESOURCE k = 2
s = 1: (0, 38, 33, 25, 20, 31, 29, 33, 14, 4, 10, 0)
s = 2: (0, 36, 21, 27, 12, 23, 44, 30, 23, 3, 15, 0)
s = 3: (0, 35, 33, 38, 22, 39, 29, 20, 22, 2, 16, 0)
s = 4: (0, 47, 49, 26, 16, 31, 15, 29, 15, 5, 12, 0)
s = 5: (0, 33, 39, 32, 20, 47, 21, 17, 18, 3, 9, 0)
s = 6: (0, 50, 24, 25, 17, 38, 28, 13, 19, 5, 11, 0)
s = 7: (0, 33, 24, 29, 22, 26, 26, 34, 21, 3, 9, 0)
s = 8: (0, 45, 46, 25, 19, 22, 16, 34, 15, 2, 15, 0)
s = 9: (0, 61, 43, 28, 23, 46, 17, 23, 15, 5, 14, 0)
s = 10: (0, 60, 40, 36, 14, 28, 32, 23, 24, 4, 8, 0)
s = 11: (0, 28, 35, 28, 16, 19, 18, 21, 12, 4, 15, 0)
s = 12: (0, 33, 58, 37, 14, 42, 38, 29, 27, 5, 19, 0)
s = 13: (0, 40, 37, 27, 21, 24, 20, 27, 29, 2, 10, 0)
s = 14: (0, 31, 26, 27, 22, 38, 27, 28, 11, 3, 12, 0)
s = 15: (0, 35, 24, 29, 20, 17, 17, 16, 17, 3, 12, 0)
s = 16: (0, 31, 28, 37, 18, 31, 24, 27, 20, 3, 14, 0)
s = 17: (0, 45, 40, 37, 21, 27, 29, 17, 22, 4, 17, 0)
s = 18: (0, 27, 41, 40, 16, 36, 36, 19, 22, 5, 13, 0)
s = 19: (0, 61, 33, 29, 18, 35, 29, 35, 22, 6, 9, 0)
s = 20: (0, 31, 43, 44, 17, 27, 19, 20, 22, 3, 8, 0)
s = 21: (0, 31, 45, 46, 18, 37, 35, 26, 24, 4, 12, 0)
s = 22: (0, 28, 44, 21, 15, 25, 24, 16, 14, 3, 10, 0)
s = 23: (0, 32, 52, 31, 24, 21, 38, 23, 17, 3, 13, 0)
s = 24: (0, 31, 27, 38, 19, 46, 20, 24, 21, 3, 15, 0)
s = 25: (0, 52, 43, 45, 21, 47, 23, 26, 22, 4, 8, 0)
s = 26: (0, 37, 69, 26, 33, 37, 28, 21, 20, 2, 11, 0)
s = 27: (0, 61, 37, 37, 13, 22, 31, 20, 35, 3, 8, 0)
s = 28: (0, 30, 28, 28, 18, 35, 21, 27, 14, 4, 8, 0)
s = 29: (0, 33, 39, 33, 19, 20, 22, 17, 20, 4, 18, 0)
s = 30: (0, 27, 46, 42, 16, 30, 20, 23, 23, 4, 17, 0)
s = 31: (0, 27, 34, 30, 17, 30, 37, 13, 14, 3, 16, 0)
s = 32: (0, 43, 45, 29, 29, 39, 25, 22, 17, 3, 10, 0)
s = 33: (0, 52, 41, 37, 21, 26, 17, 23, 17, 2, 13, 0)
s = 34: (0, 30, 25, 25, 14, 26, 29, 23, 16, 3, 10, 0)
s = 35: (0, 45, 23, 30, 16, 23, 35, 24, 17, 3, 10, 0)
s = 36: (0, 38, 40, 25, 30, 47, 48, 30, 13, 4, 19, 0)
s = 37: (0, 38, 36, 23, 19, 23, 48, 34, 16, 4, 12, 0)
s = 38: (0, 41, 35, 49, 16, 38, 33, 40, 28, 2, 16, 0)
s = 39: (0, 28, 29, 35, 20, 28, 27, 33, 15, 3, 11, 0)
s = 40: (0, 50, 27, 25, 20, 34, 26, 22, 14, 3, 19, 0)
s = 41: (0, 56, 34, 37, 11, 18, 44, 28, 18, 5, 14, 0)
s = 42: (0, 65, 40, 21, 18, 17, 25, 23, 15, 2, 7, 0)
s = 43: (0, 30, 48, 27, 21, 26, 40, 24, 18, 3, 12, 0)
s = 44: (0, 58, 29, 39, 21, 32, 27, 14, 17, 5, 10, 0)
s = 45: (0, 58, 50, 40, 16, 22, 27, 18, 29, 3, 9, 0)
s = 46: (0, 38, 22, 29, 20, 37, 32, 26, 15, 3, 13, 0)
s = 47: (0, 28, 21, 31, 23, 17, 19, 43, 23, 4, 11, 0)
s = 48: (0, 54, 37, 30, 31, 37, 22, 26, 14, 3, 9, 0)
s = 49: (0, 51, 34, 30, 19, 17, 28, 27, 27, 3, 11, 0)
s = 50: (0, 48, 37, 26, 18, 32, 21, 25, 21, 2, 11, 0)
s = 51: (0, 44, 55, 17, 17, 20, 33, 27, 17, 3, 10, 0)
s = 52: (0, 37, 42, 23, 27, 26, 23, 25, 17, 3, 16, 0)
s = 53: (0, 28, 40, 39, 23, 29, 33, 18, 21, 3, 15, 0)
s = 54: (0, 42, 25, 31, 23, 26, 31, 32, 15, 4, 14, 0)
s = 55: (0, 42, 40, 29, 13, 32, 40, 16, 18, 3, 8, 0)
s = 56: (0, 41, 29, 24, 13, 38, 31, 25, 24, 4, 11, 0)
s = 57: (0, 42, 54, 30, 24, 24, 24, 33, 25, 3, 11, 0)
s = 58: (0, 42, 29, 39, 18, 28, 29, 24, 12, 4, 11, 0)
s = 59: (0, 57, 48, 25, 18, 29, 36, 27, 24, 4, 10, 0)
s = 60: (0, 36, 41, 28, 22, 20, 38, 22, 20, 3, 12, 0)
s = 61: (0, 46, 31, 27, 36, 18, 17, 47, 16, 2, 14, 0)
s = 62: (0, 47, 21, 47, 17, 30, 38, 25, 14, 3, 11, 0)
s = 63: (0, 43, 45, 21, 23, 26, 33, 26, 14, 3, 13, 0)
s = 64: (0, 49, 22, 30, 19, 21, 25, 23, 15, 5, 8, 0)
s = 65: (0, 46, 30, 25, 23, 34, 47, 31, 19, 3, 7, 0)
s = 66: (0, 45, 36, 21, 14, 27, 32, 18, 15, 3, 13, 0)
s = 67: (0, 58, 30, 43, 19, 48, 29, 20, 13, 4, 8, 0)
s = 68: (0, 49, 30, 31, 21, 16, 16, 38, 29, 3, 18, 0)
s = 69: (0, 59, 47, 27, 17, 32, 36, 33, 14, 3, 15, 0)
s = 70: (0, 56, 29, 38, 16, 36, 32, 17, 20, 4, 11, 0)
s = 71: (0, 37, 47, 24, 18, 35, 26, 21, 24, 5, 11, 0)
s = 72: (0, 70, 41, 21, 26, 44, 32, 20, 23, 3, 12, 0)
s = 73: (0, 28, 49, 28, 18, 29, 28, 23, 25, 2, 11, 0)
s = 74: (0, 50, 31, 16, 15, 20, 24, 41, 23, 3, 7, 0)
s = 75: (0, 58, 35, 25, 13, 25, 19, 23, 21, 3, 9, 0)
s = 76: (0, 36, 40, 30, 26, 43, 29, 24, 15, 6, 9, 0)
s = 77: (0, 45, 36, 24, 31, 42, 35, 23, 18, 3, 13, 0)
s = 78: (0, 58, 60, 29, 31, 24, 34, 27, 15, 3, 20, 0)
s = 79: (0, 33, 44, 21, 21, 36, 32, 32, 12, 4, 13, 0)
s = 80: (0, 24, 29, 41, 23, 20, 20, 25, 17, 3, 15, 0)
s = 81: (0, 57, 27, 24, 23, 21, 22, 26, 15, 4, 10, 0)
s = 82: (0, 36, 42, 19, 20, 24, 36, 31, 18, 5, 16, 0)
s = 83: (0, 68, 26, 29, 26, 17, 36, 42, 13, 4, 13, 0)
s = 84: (0, 28, 38, 37, 32, 34, 21, 25, 16, 4, 14, 0)
s = 85: (0, 42, 33, 36, 22, 27, 21, 28, 12, 3, 12, 0)
s = 86: (0, 37, 38, 17, 13, 33, 19, 33, 18, 3, 22, 0)
s = 87: (0, 45, 42, 24, 22, 28, 17, 21, 16, 5, 14, 0)
s = 88: (0, 49, 36, 32, 28, 29, 24, 36, 15, 5, 14, 0)
s = 89: (0, 27, 22, 41, 20, 34, 32, 20, 14, 3, 10, 0)
s = 90: (0, 59, 41, 18, 26, 27, 36, 22, 18, 4, 15, 0)
s = 91: (0, 42, 21, 31, 29, 17, 31, 23, 16, 5, 21, 0)
s = 92: (0, 33, 25, 29, 17, 26, 20, 32, 17, 4, 11, 0)
s = 93: (0, 55, 23, 28, 20, 23, 22, 38, 16, 4, 10, 0)
s = 94: (0, 32, 20, 33, 20, 21, 25, 20, 17, 4, 9, 0)
s = 95: (0, 59, 27, 27, 18, 25, 31, 16, 15, 4, 8, 0)
s = 96: (0, 44, 40, 19, 12, 20, 29, 39, 17, 4, 12, 0)
s = 97: (0, 58, 51, 30, 20, 32, 30, 24, 19, 4, 10, 0)
s = 98: (0, 44, 29, 25, 19, 23, 25, 36, 13, 3, 9, 0)
s = 99: (0, 44, 32, 33, 25, 30, 21, 22, 24, 3, 11, 0)
s = 100: (0, 26, 26, 27, 20, 32, 23, 24, 16, 2, 10, 0)
s = 101: (0, 25, 31, 20, 16, 28, 26, 42, 10, 3, 9, 0)
s = 102: (0, 33, 39, 20, 20, 28, 29, 17, 16, 4, 12, 0)
s = 103: (0, 26, 41, 34, 16, 38, 33, 27, 16, 3, 10, 0)
s = 104: (0, 43, 26, 30, 20, 22, 23, 32, 13, 3, 10, 0)
s = 105: (0, 43, 28, 25, 20, 20, 18, 17, 16, 2, 14, 0)
s = 106: (0, 51, 39, 27, 13, 27, 36, 18, 18, 4, 16, 0)
s = 107: (0, 60, 29, 34, 19, 30, 33, 32, 21, 2, 8, 0)
s = 108: (0, 36, 47, 48, 15, 32, 23, 21, 19, 4, 14, 0)
s = 109: (0, 41, 32, 29, 16, 34, 20, 14, 24, 3, 10, 0)
s = 110: (0, 47, 35, 24, 20, 36, 42, 14, 17, 4, 10, 0)
s = 111: (0, 48, 45, 38, 24, 25, 21, 31, 17, 4, 11, 0)
s = 112: (0, 80, 47, 27, 14, 31, 40, 27, 26, 3, 18, 0)
s = 113: (0, 47, 20, 24, 16, 35, 38, 26, 22, 3, 17, 0)
s = 114: (0, 35, 61, 27, 23, 23, 22, 18, 17, 4, 18, 0)
s = 115: (0, 37, 32, 47, 27, 20, 17, 23, 21, 4, 11, 0)
s = 116: (0, 31, 24, 22, 23, 18, 34, 28, 18, 4, 10, 0)
s = 117: (0, 38, 72, 41, 17, 37, 37, 26, 17, 4, 10, 0)
s = 118: (0, 71, 38, 21, 19, 41, 18, 22, 13, 4, 16, 0)
s = 119: (0, 36, 52, 25, 34, 38, 35, 25, 18, 5, 8, 0)
s = 120: (0, 41, 52, 20, 23, 38, 42, 29, 23, 2, 7, 0)
s = 121: (0, 32, 30, 47, 21, 33, 36, 39, 23, 3, 13, 0)
s = 122: (0, 72, 35, 51, 15, 31, 35, 23, 16, 3, 20, 0)
s = 123: (0, 48, 40, 30, 20, 26, 36, 30, 26, 3, 7, 0)
s = 124: (0, 28, 39, 36, 17, 32, 24, 31, 11, 4, 12, 0)
s = 125: (0, 49, 40, 37, 25, 27, 20, 23, 24, 3, 10, 0)
s = 126: (0, 38, 47, 37, 23, 42, 32, 20, 15, 4, 13, 0)
s = 127: (0, 27, 45, 31, 29, 35, 16, 29, 19, 5, 18, 0)
s = 128: (0, 45, 31, 39, 19, 23, 35, 26, 30, 4, 11, 0)
s = 129: (0, 57, 49, 28, 25, 33, 51, 17, 17, 4, 16, 0)
s = 130: (0, 41, 33, 38, 23, 16, 27, 23, 21, 3, 12, 0)
s = 131: (0, 36, 27, 29, 23, 29, 36, 20, 15, 3, 8, 0)
s = 132: (0, 30, 33, 25, 31, 38, 23, 21, 22, 3, 15, 0)
s = 133: (0, 27, 40, 27, 23, 31, 17, 32, 11, 5, 10, 0)
s = 134: (0, 43, 24, 35, 31, 36, 30, 19, 18, 4, 13, 0)
s = 135: (0, 52, 30, 19, 12, 23, 31, 26, 13, 3, 12, 0)
s = 136: (0, 40, 36, 24, 25, 32, 39, 18, 24, 3, 12, 0)
s = 137: (0, 40, 21, 26, 17, 39, 16, 31, 21, 6, 13, 0)
s = 138: (0, 62, 35, 42, 26, 36, 30, 21, 29, 4, 16, 0)
s = 139: (0, 46, 35, 25, 23, 30, 30, 30, 21, 4, 11, 0)
s = 140: (0, 46, 45, 24, 15, 36, 26, 27, 16, 4, 13, 0)
s = 141: (0, 27, 28, 23, 26, 24, 27, 37, 21, 4, 13, 0)
s = 142: (0, 23, 23, 41, 28, 34, 27, 14, 20, 3, 13, 0)
s = 143: (0, 57, 44, 36, 27, 33, 32, 16, 14, 3, 15, 0)
s = 144: (0, 37, 40, 19, 13, 31, 28, 19, 14, 4, 17, 0)
s = 145: (0, 37, 20, 29, 28, 29, 23, 19, 15, 3, 9, 0)
s = 146: (0, 28, 37, 19, 18, 53, 32, 16, 14, 4, 14, 0)
s = 147: (0, 39, 35, 28, 15, 40, 23, 21, 14, 3, 8, 0)
s = 148: (0, 32, 29, 20, 26, 51, 39, 15, 21, 4, 14, 0)
s = 149: (0, 32, 49, 31, 13, 25, 18, 15, 11, 2, 11, 0)
s = 150: (0, 37, 38, 38, 24, 47, 27, 30, 20, 2, 9, 0)
s = 151: (0, 47, 33, 29, 14, 34, 44, 34, 21, 2, 12, 0)
s = 152: (0, 39, 51, 25, 13, 47, 20, 24, 23, 4, 11, 0)
s = 153: (0, 62, 35, 35, 21, 24, 38, 33, 25, 3, 10, 0)
s = 154: (0, 46, 31, 27, 12, 23, 28, 23, 26, 6, 9, 0)
s = 155: (0, 30, 45, 25, 15, 30, 37, 32, 11, 3, 11, 0)
s = 156: (0, 29, 45, 30, 22, 23, 24, 30, 20, 3, 11, 0)
s = 157: (0, 66, 44, 31, 19, 48, 43, 28, 17, 3, 10, 0)
s = 158: (0, 33, 32, 25, 25, 29, 18, 50, 16, 3, 16, 0)
s = 159: (0, 26, 42, 28, 18, 36, 25, 19, 11, 4, 8, 0)
s = 160: (0, 34, 29, 34, 16, 37, 31, 19, 21, 3, 17, 0)
s = 161: (0, 24, 31, 27, 24, 35, 33, 16, 22, 4, 13, 0)
s = 162: (0, 41, 35, 37, 13, 37, 26, 26, 10, 3, 8, 0)
s = 163: (0, 48, 41, 17, 37, 23, 38, 22, 17, 4, 12, 0)
s = 164: (0, 35, 28, 24, 16, 28, 24, 18, 12, 4, 9, 0)
s = 165: (0, 45, 20, 39, 17, 43, 26, 16, 14, 3, 13, 0)
s = 166: (0, 35, 51, 23, 14, 29, 23, 27, 12, 4, 15, 0)
s = 167: (0, 29, 24, 38, 17, 46, 16, 25, 10, 3, 11, 0)
s = 168: (0, 49, 49, 27, 19, 27, 21, 21, 18, 2, 13, 0)
s = 169: (0, 46, 39, 25, 22, 31, 27, 20, 16, 2, 14, 0)
s = 170: (0, 46, 25, 32, 12, 49, 35, 25, 11, 3, 13, 0)
s = 171: (0, 31, 32, 28, 22, 21, 29, 33, 20, 4, 10, 0)
s = 172: (0, 28, 45, 23, 22, 28, 18, 18, 20, 3, 9, 0)
s = 173: (0, 66, 48, 22, 15, 19, 21, 38, 22, 4, 16, 0)
s = 174: (0, 34, 25, 40, 19, 23, 24, 24, 19, 3, 11, 0)
s = 175: (0, 29, 29, 21, 25, 19, 30, 26, 10, 2, 12, 0)
s = 176: (0, 28, 39, 21, 35, 27, 21, 27, 19, 2, 11, 0)
s = 177: (0, 44, 23, 30, 29, 26, 36, 30, 26, 4, 14, 0)
s = 178: (0, 31, 29, 53, 20, 27, 27, 16, 16, 4, 13, 0)
s = 179: (0, 67, 43, 19, 14, 42, 49, 30, 14, 3, 11, 0)
s = 180: (0, 34, 23, 34, 22, 30, 29, 23, 12, 2, 8, 0)
s = 181: (0, 38, 66, 31, 20, 35, 24, 20, 15, 3, 13, 0)
s = 182: (0, 48, 30, 31, 22, 41, 42, 17, 11, 2, 8, 0)
s = 183: (0, 42, 45, 21, 17, 33, 27, 15, 20, 3, 10, 0)
s = 184: (0, 27, 40, 27, 21, 36, 25, 18, 11, 5, 10, 0)
s = 185: (0, 38, 29, 31, 28, 29, 26, 30, 33, 3, 12, 0)
s = 186: (0, 71, 34, 21, 13, 28, 45, 21, 24, 3, 10, 0)
s = 187: (0, 42, 37, 26, 15, 34, 29, 28, 25, 4, 12, 0)
s = 188: (0, 48, 47, 36, 32, 41, 37, 20, 15, 3, 11, 0)
s = 189: (0, 47, 24, 38, 20, 42, 33, 17, 21, 4, 7, 0)
s = 190: (0, 40, 28, 22, 11, 25, 31, 20, 26, 3, 13, 0)
s = 191: (0, 30, 50, 21, 31, 36, 45, 35, 33, 5, 14, 0)
s = 192: (0, 22, 27, 24, 34, 30, 23, 31, 14, 4, 11, 0)
s = 193: (0, 37, 21, 24, 23, 26, 24, 22, 14, 4, 14, 0)
s = 194: (0, 50, 39, 35, 21, 28, 40, 15, 14, 5, 8, 0)
s = 195: (0, 58, 33, 46, 12, 28, 24, 15, 11, 3, 12, 0)
s = 196: (0, 58, 32, 32, 25, 24, 20, 22, 20, 3, 15, 0)
s = 197: (0, 42, 49, 29, 16, 34, 33, 23, 21, 4, 14, 0)
s = 198: (0, 28, 19, 26, 24, 36, 18, 29, 15, 4, 10, 0)
s = 199: (0, 37, 28, 31, 32, 30, 28, 22, 25, 4, 9, 0)
s = 200: (0, 42, 35, 41, 21, 37, 27, 16, 21, 2, 19, 0)
************************************************************************
ES/LS-VALUES:
jobnr.   ES(i)    LS(i)
------------------------------------------------------------------------
  0        0        0
  1        0       48
  2        0       64
  3        0       73
  4       11       60
  5       14       70
  6       14       64
  7       21       72
  8       27       79
  9       22       81
 10       11       72
 11       30       83
************************************************************************
BIG-M-VALUES:
M1 = 43, M2 = 148
************************************************************************
